************************************************************************
file with basedata            : cr319_.bas
initial value random generator: 628119104
************************************************************************
projects                      :  1
jobs (incl. supersource/sink ):  18
horizon                       :  121
RESOURCES
  - renewable                 :  3   R
  - nonrenewable              :  2   N
  - doubly constrained        :  0   D
************************************************************************
PROJECT INFORMATION:
pronr.  #jobs rel.date duedate tardcost  MPM-Time
    1     16      0       21       15       21
************************************************************************
PRECEDENCE RELATIONS:
jobnr.    #modes  #successors   successors
   1        1          3           2   3   4
   2        3          3           5   8  11
   3        3          3           5   7  17
   4        3          3           6   8  10
   5        3          3           6   9  15
   6        3          1          14
   7        3          2          13  15
   8        3          3          15  16  17
   9        3          1          10
  10        3          1          12
  11        3          3          13  14  17
  12        3          2          13  14
  13        3          1          16
  14        3          1          16
  15        3          1          18
  16        3          1          18
  17        3          1          18
  18        1          0        
************************************************************************
REQUESTS/DURATIONS:
jobnr. mode duration  R 1  R 2  R 3  N 1  N 2
------------------------------------------------------------------------
  1      1     0       0    0    0    0    0
  2      1     4       0    0    2    4    0
         2     7       3    3    2    0    8
         3     8       3    0    1    0    7
  3      1     1       0    5    9    0    7
         2     3       2    4    7    0    4
         3     7       0    4    6    6    0
  4      1     8       0    5    4    5    0
         2     9       0    5    0    4    0
         3     9       6    0    4    4    0
  5      1     3       5    0    8    8    0
         2     4       0    4    0    0    7
         3     8       5    0    0    8    0
  6      1     2       0    9    8    0    6
         2     4       7    0    0    0    5
         3     7       0    0    3    0    4
  7      1     3       0    8    0    7    0
         2     7       0    5    7    0    7
         3    10       5    0    4    0    1
  8      1     3       0    0    6    7    0
         2     8       0    8    0    4    0
         3     9       0    0    5    0    5
  9      1     1       7    7    0    0    8
         2     5       0    0    6    3    0
         3     7       0    6    0    0    8
 10      1     5       0    6    8    8    0
         2     5       2    6    0    0    8
         3     6       0    5    0    0    8
 11      1     1       0    5    7    4    0
         2     5       0    2    0    0    9
         3     7       1    0    0    0    3
 12      1     1       5    3    0    8    0
         2    10       0    3    0    5    0
         3    10       3    0    0    6    0
 13      1     2       7    7    0    0    3
         2     3       7    0    4    0    3
         3     3       6    0    0    7    0
 14      1     5       2    0    0    0    9
         2     6       0    0    8    0    9
         3     7       0   10    0    0    9
 15      1     2       7    9    9    8    0
         2     6       5    8    0    0    2
         3     8       2    0    0    0    2
 16      1     2       8    0    8    0    7
         2     4       4    0    0    0    3
         3     8       0    1    0    4    0
 17      1     1       6    0    0    0    9
         2     5       3    0    0    7    0
         3     7       0    4    9    6    0
 18      1     0       0    0    0    0    0
************************************************************************
RESOURCEAVAILABILITIES:
  R 1  R 2  R 3  N 1  N 2
   17   19   21   67   75
************************************************************************
